\ This file has been generated by DOcplex
\ ENCODING=ISO-8859-1
\Problem name: Knapsack

Maximize
 obj: 20 x_0 + 18 x_1 + 17 x_2 + 15 x_3 + 15 x_4 + 10 x_5 + 5 x_6 + 3 x_7 + x_8
      + x_9
Subject To
 c0: 30 x_0 + 25 x_1 + 20 x_2 + 18 x_3 + 17 x_4 + 11 x_5 + 5 x_6 + 2 x_7 + x_8
     + x_9 <= 60

Bounds
 0 <= x_0 <= 1
 0 <= x_1 <= 1
 0 <= x_2 <= 1
 0 <= x_3 <= 1
 0 <= x_4 <= 1
 0 <= x_5 <= 1
 0 <= x_6 <= 1
 0 <= x_7 <= 1
 0 <= x_8 <= 1
 0 <= x_9 <= 1

Binaries
 x_0 x_1 x_2 x_3 x_4 x_5 x_6 x_7 x_8 x_9
End
